c File: flat50_3_0.col
c
c SOURCE: Joseph Culberson (joe@cs.ualberta.ca)
c DESCRIPTION: Quasi-random coloring problem
c              generated with flatness = 0
c                             probability = 0.139
c                             known coloring = 3
c                             random seed = 1903
c              Creation Date:  Tue Jun  9 12:20:47 1998
c Maximum degree = 7 Minimum degree = 1
c p edge 50 115
c cnf created by edge2cnf
p cnf 150 545
-1 -2 0
-1 -3 0
-2 -3 0
1 2 3 0
-4 -5 0
-4 -6 0
-5 -6 0
4 5 6 0
-7 -8 0
-7 -9 0
-8 -9 0
7 8 9 0
-10 -11 0
-10 -12 0
-11 -12 0
10 11 12 0
-13 -14 0
-13 -15 0
-14 -15 0
13 14 15 0
-16 -17 0
-16 -18 0
-17 -18 0
16 17 18 0
-19 -20 0
-19 -21 0
-20 -21 0
19 20 21 0
-22 -23 0
-22 -24 0
-23 -24 0
22 23 24 0
-25 -26 0
-25 -27 0
-26 -27 0
25 26 27 0
-28 -29 0
-28 -30 0
-29 -30 0
28 29 30 0
-31 -32 0
-31 -33 0
-32 -33 0
31 32 33 0
-34 -35 0
-34 -36 0
-35 -36 0
34 35 36 0
-37 -38 0
-37 -39 0
-38 -39 0
37 38 39 0
-40 -41 0
-40 -42 0
-41 -42 0
40 41 42 0
-43 -44 0
-43 -45 0
-44 -45 0
43 44 45 0
-46 -47 0
-46 -48 0
-47 -48 0
46 47 48 0
-49 -50 0
-49 -51 0
-50 -51 0
49 50 51 0
-52 -53 0
-52 -54 0
-53 -54 0
52 53 54 0
-55 -56 0
-55 -57 0
-56 -57 0
55 56 57 0
-58 -59 0
-58 -60 0
-59 -60 0
58 59 60 0
-61 -62 0
-61 -63 0
-62 -63 0
61 62 63 0
-64 -65 0
-64 -66 0
-65 -66 0
64 65 66 0
-67 -68 0
-67 -69 0
-68 -69 0
67 68 69 0
-70 -71 0
-70 -72 0
-71 -72 0
70 71 72 0
-73 -74 0
-73 -75 0
-74 -75 0
73 74 75 0
-76 -77 0
-76 -78 0
-77 -78 0
76 77 78 0
-79 -80 0
-79 -81 0
-80 -81 0
79 80 81 0
-82 -83 0
-82 -84 0
-83 -84 0
82 83 84 0
-85 -86 0
-85 -87 0
-86 -87 0
85 86 87 0
-88 -89 0
-88 -90 0
-89 -90 0
88 89 90 0
-91 -92 0
-91 -93 0
-92 -93 0
91 92 93 0
-94 -95 0
-94 -96 0
-95 -96 0
94 95 96 0
-97 -98 0
-97 -99 0
-98 -99 0
97 98 99 0
-100 -101 0
-100 -102 0
-101 -102 0
100 101 102 0
-103 -104 0
-103 -105 0
-104 -105 0
103 104 105 0
-106 -107 0
-106 -108 0
-107 -108 0
106 107 108 0
-109 -110 0
-109 -111 0
-110 -111 0
109 110 111 0
-112 -113 0
-112 -114 0
-113 -114 0
112 113 114 0
-115 -116 0
-115 -117 0
-116 -117 0
115 116 117 0
-118 -119 0
-118 -120 0
-119 -120 0
118 119 120 0
-121 -122 0
-121 -123 0
-122 -123 0
121 122 123 0
-124 -125 0
-124 -126 0
-125 -126 0
124 125 126 0
-127 -128 0
-127 -129 0
-128 -129 0
127 128 129 0
-130 -131 0
-130 -132 0
-131 -132 0
130 131 132 0
-133 -134 0
-133 -135 0
-134 -135 0
133 134 135 0
-136 -137 0
-136 -138 0
-137 -138 0
136 137 138 0
-139 -140 0
-139 -141 0
-140 -141 0
139 140 141 0
-142 -143 0
-142 -144 0
-143 -144 0
142 143 144 0
-145 -146 0
-145 -147 0
-146 -147 0
145 146 147 0
-148 -149 0
-148 -150 0
-149 -150 0
148 149 150 0
-64 -1 0
-65 -2 0
-66 -3 0
-88 -1 0
-89 -2 0
-90 -3 0
-112 -1 0
-113 -2 0
-114 -3 0
-76 -4 0
-77 -5 0
-78 -6 0
-94 -4 0
-95 -5 0
-96 -6 0
-103 -4 0
-104 -5 0
-105 -6 0
-115 -4 0
-116 -5 0
-117 -6 0
-145 -4 0
-146 -5 0
-147 -6 0
-52 -7 0
-53 -8 0
-54 -9 0
-70 -7 0
-71 -8 0
-72 -9 0
-124 -7 0
-125 -8 0
-126 -9 0
-55 -10 0
-56 -11 0
-57 -12 0
-73 -10 0
-74 -11 0
-75 -12 0
-91 -10 0
-92 -11 0
-93 -12 0
-97 -10 0
-98 -11 0
-99 -12 0
-121 -10 0
-122 -11 0
-123 -12 0
-136 -10 0
-137 -11 0
-138 -12 0
-61 -13 0
-62 -14 0
-63 -15 0
-79 -13 0
-80 -14 0
-81 -15 0
-94 -13 0
-95 -14 0
-96 -15 0
-106 -13 0
-107 -14 0
-108 -15 0
-127 -13 0
-128 -14 0
-129 -15 0
-148 -13 0
-149 -14 0
-150 -15 0
-76 -16 0
-77 -17 0
-78 -18 0
-79 -16 0
-80 -17 0
-81 -18 0
-109 -16 0
-110 -17 0
-111 -18 0
-55 -19 0
-56 -20 0
-57 -21 0
-73 -19 0
-74 -20 0
-75 -21 0
-79 -19 0
-80 -20 0
-81 -21 0
-109 -19 0
-110 -20 0
-111 -21 0
-115 -19 0
-116 -20 0
-117 -21 0
-76 -22 0
-77 -23 0
-78 -24 0
-79 -22 0
-80 -23 0
-81 -24 0
-88 -22 0
-89 -23 0
-90 -24 0
-127 -22 0
-128 -23 0
-129 -24 0
-67 -25 0
-68 -26 0
-69 -27 0
-70 -25 0
-71 -26 0
-72 -27 0
-100 -25 0
-101 -26 0
-102 -27 0
-124 -25 0
-125 -26 0
-126 -27 0
-127 -25 0
-128 -26 0
-129 -27 0
-52 -28 0
-53 -29 0
-54 -30 0
-67 -28 0
-68 -29 0
-69 -30 0
-91 -28 0
-92 -29 0
-93 -30 0
-112 -28 0
-113 -29 0
-114 -30 0
-142 -28 0
-143 -29 0
-144 -30 0
-67 -31 0
-68 -32 0
-69 -33 0
-82 -31 0
-83 -32 0
-84 -33 0
-91 -31 0
-92 -32 0
-93 -33 0
-112 -31 0
-113 -32 0
-114 -33 0
-118 -31 0
-119 -32 0
-120 -33 0
-139 -31 0
-140 -32 0
-141 -33 0
-145 -31 0
-146 -32 0
-147 -33 0
-133 -34 0
-134 -35 0
-135 -36 0
-67 -37 0
-68 -38 0
-69 -39 0
-85 -37 0
-86 -38 0
-87 -39 0
-118 -37 0
-119 -38 0
-120 -39 0
-148 -37 0
-149 -38 0
-150 -39 0
-61 -40 0
-62 -41 0
-63 -42 0
-82 -40 0
-83 -41 0
-84 -42 0
-106 -40 0
-107 -41 0
-108 -42 0
-58 -43 0
-59 -44 0
-60 -45 0
-70 -43 0
-71 -44 0
-72 -45 0
-103 -43 0
-104 -44 0
-105 -45 0
-127 -43 0
-128 -44 0
-129 -45 0
-136 -43 0
-137 -44 0
-138 -45 0
-142 -43 0
-143 -44 0
-144 -45 0
-82 -46 0
-83 -47 0
-84 -48 0
-94 -46 0
-95 -47 0
-96 -48 0
-106 -46 0
-107 -47 0
-108 -48 0
-112 -46 0
-113 -47 0
-114 -48 0
-115 -46 0
-116 -47 0
-117 -48 0
-136 -46 0
-137 -47 0
-138 -48 0
-76 -49 0
-77 -50 0
-78 -51 0
-100 -49 0
-101 -50 0
-102 -51 0
-121 -49 0
-122 -50 0
-123 -51 0
-133 -49 0
-134 -50 0
-135 -51 0
-136 -49 0
-137 -50 0
-138 -51 0
-130 -52 0
-131 -53 0
-132 -54 0
-133 -52 0
-134 -53 0
-135 -54 0
-136 -52 0
-137 -53 0
-138 -54 0
-148 -52 0
-149 -53 0
-150 -54 0
-115 -55 0
-116 -56 0
-117 -57 0
-124 -55 0
-125 -56 0
-126 -57 0
-115 -58 0
-116 -59 0
-117 -60 0
-145 -58 0
-146 -59 0
-147 -60 0
-148 -58 0
-149 -59 0
-150 -60 0
-118 -61 0
-119 -62 0
-120 -63 0
-127 -61 0
-128 -62 0
-129 -63 0
-136 -61 0
-137 -62 0
-138 -63 0
-109 -67 0
-110 -68 0
-111 -69 0
-112 -67 0
-113 -68 0
-114 -69 0
-130 -67 0
-131 -68 0
-132 -69 0
-103 -70 0
-104 -71 0
-105 -72 0
-112 -70 0
-113 -71 0
-114 -72 0
-118 -70 0
-119 -71 0
-120 -72 0
-103 -76 0
-104 -77 0
-105 -78 0
-142 -76 0
-143 -77 0
-144 -78 0
-106 -79 0
-107 -80 0
-108 -81 0
-115 -79 0
-116 -80 0
-117 -81 0
-148 -79 0
-149 -80 0
-150 -81 0
-133 -82 0
-134 -83 0
-135 -84 0
-103 -85 0
-104 -86 0
-105 -87 0
-115 -85 0
-116 -86 0
-117 -87 0
-124 -85 0
-125 -86 0
-126 -87 0
-118 -88 0
-119 -89 0
-120 -90 0
-124 -88 0
-125 -89 0
-126 -90 0
-121 -91 0
-122 -92 0
-123 -93 0
-106 -94 0
-107 -95 0
-108 -96 0
-133 -94 0
-134 -95 0
-135 -96 0
-139 -94 0
-140 -95 0
-141 -96 0
-142 -94 0
-143 -95 0
-144 -96 0
-127 -97 0
-128 -98 0
-129 -99 0
-142 -97 0
-143 -98 0
-144 -99 0
-130 -100 0
-131 -101 0
-132 -102 0
-133 -100 0
-134 -101 0
-135 -102 0
